c description: Random 3-CNF over 16 variables and 32 clauses
p cnf 16 32
5 9 15 0
8 11 15 0
-7 -11 14 0
-2 4 16 0
-2 8 -16 0
4 -8 14 0
-10 12 16 0
1 -2 -3 0
-1 -9 13 0
1 -15 16 0
-2 7 12 0
2 -3 -11 0
-7 8 -16 0
-2 -7 -15 0
-3 10 13 0
3 4 13 0
-5 -8 -15 0
2 -8 -12 0
6 -14 16 0
1 -5 9 0
-1 4 -16 0
7 13 14 0
2 3 -6 0
10 11 12 0
-8 -14 16 0
4 -10 11 0
6 -9 -14 0
9 -13 -14 0
-9 -12 -14 0
5 15 16 0
2 3 -4 0
-2 6 13 0